CLW07
Position Depot: Center
Horizon for Depot: Large
Position of customers: Cluster
Distribution of the demand: Medium
Width of time windows: Wide
Distribution of the service: Small

VEHICLE 
NUMBER 	 CAPACITY 
 5 	 	 342 
 
CUSTOMER
CUST NO. 	 XCOORD.  	 YCOORD. 	 DEMAND 	 READY TIME 	 DUE DATE 	 SERVICE TIME 
 0 	 	 500 	 	 500 	 	 0 	 	 0 	 	 3699 	 	 0 
  1 	 	 441 	 	 860 	 	 6 	 	 -40 	 	 401 	 	 91 
  2 	 	 846 	 	 13 	 	 2 	 	 438 	 	 657 	 	 95 
  3 	 	 864 	 	 911 	 	 10 	 	 3201 	 	 3699 	 	 68 
  4 	 	 751 	 	 748 	 	 9 	 	 3027 	 	 3236 	 	 50 
  5 	 	 28 	 	 323 	 	 10 	 	 3323 	 	 3637 	 	 76 
  6 	 	 290 	 	 883 	 	 3 	 	 2853 	 	 3250 	 	 53 
  7 	 	 854 	 	 939 	 	 7 	 	 2852 	 	 3092 	 	 58 
  8 	 	 932 	 	 865 	 	 4 	 	 2943 	 	 3325 	 	 50 
  9 	 	 370 	 	 803 	 	 1 	 	 2347 	 	 2779 	 	 92 
  10 	 	 14 	 	 319 	 	 10 	 	 3144 	 	 3640 	 	 94 
  11 	 	 902 	 	 890 	 	 8 	 	 2421 	 	 2868 	 	 70 
  12 	 	 239 	 	 867 	 	 91 	 	 3102 	 	 3546 	 	 62 
  13 	 	 871 	 	 901 	 	 95 	 	 2418 	 	 2866 	 	 70 
  14 	 	 222 	 	 890 	 	 5 	 	 2986 	 	 3286 	 	 63 
  15 	 	 446 	 	 853 	 	 2 	 	 -81 	 	 392 	 	 95 
  16 	 	 807 	 	 95 	 	 5 	 	 1306 	 	 1795 	 	 78 
  17 	 	 231 	 	 947 	 	 2 	 	 3322 	 	 3620 	 	 57 
  18 	 	 738 	 	 668 	 	 7 	 	 2105 	 	 2497 	 	 87 
  19 	 	 236 	 	 917 	 	 7 	 	 3196 	 	 3397 	 	 59 
  20 	 	 650 	 	 841 	 	 7 	 	 253 	 	 738 	 	 86 
  21 	 	 461 	 	 746 	 	 9 	 	 1104 	 	 1454 	 	 94 
  22 	 	 719 	 	 827 	 	 88 	 	 447 	 	 791 	 	 99 
  23 	 	 398 	 	 825 	 	 70 	 	 3370 	 	 3699 	 	 93 
  24 	 	 777 	 	 837 	 	 91 	 	 3228 	 	 3699 	 	 87 
  25 	 	 12 	 	 340 	 	 4 	 	 2402 	 	 2667 	 	 60 
  26 	 	 94 	 	 182 	 	 8 	 	 604 	 	 994 	 	 53 
  27 	 	 167 	 	 885 	 	 10 	 	 231 	 	 559 	 	 66 
  28 	 	 745 	 	 755 	 	 3 	 	 3058 	 	 3473 	 	 64 
  29 	 	 342 	 	 769 	 	 3 	 	 53 	 	 343 	 	 96 
  30 	 	 758 	 	 825 	 	 7 	 	 1104 	 	 1338 	 	 51 
  31 	 	 858 	 	 827 	 	 62 	 	 2599 	 	 2903 	 	 75 
  32 	 	 753 	 	 867 	 	 4 	 	 1159 	 	 1617 	 	 65 
  33 	 	 727 	 	 811 	 	 2 	 	 2406 	 	 2765 	 	 90 
  34 	 	 370 	 	 944 	 	 5 	 	 1991 	 	 2235 	 	 100 
  35 	 	 869 	 	 951 	 	 9 	 	 405 	 	 640 	 	 72 
  36 	 	 250 	 	 929 	 	 6 	 	 576 	 	 1000 	 	 89 
  37 	 	 49 	 	 258 	 	 7 	 	 1627 	 	 1922 	 	 98 
  38 	 	 660 	 	 837 	 	 2 	 	 3033 	 	 3380 	 	 70 
  39 	 	 3 	 	 368 	 	 70 	 	 2566 	 	 3005 	 	 59 
  40 	 	 455 	 	 773 	 	 8 	 	 3150 	 	 3620 	 	 86 
  41 	 	 387 	 	 846 	 	 5 	 	 2367 	 	 2848 	 	 93 
  42 	 	 458 	 	 932 	 	 6 	 	 1530 	 	 1773 	 	 65 
  43 	 	 791 	 	 715 	 	 10 	 	 3373 	 	 3699 	 	 94 
  44 	 	 783 	 	 748 	 	 4 	 	 996 	 	 1452 	 	 100 
  45 	 	 178 	 	 838 	 	 1 	 	 661 	 	 932 	 	 64 
  46 	 	 829 	 	 940 	 	 9 	 	 941 	 	 1357 	 	 97 
  47 	 	 438 	 	 863 	 	 79 	 	 156 	 	 436 	 	 60 
  48 	 	 255 	 	 786 	 	 10 	 	 2919 	 	 3147 	 	 64 
  49 	 	 323 	 	 783 	 	 55 	 	 654 	 	 1068 	 	 66 
  50 	 	 806 	 	 753 	 	 3 	 	 2793 	 	 3273 	 	 83 
  51 	 	 293 	 	 921 	 	 6 	 	 2871 	 	 3123 	 	 96 
  52 	 	 406 	 	 897 	 	 7 	 	 1732 	 	 2065 	 	 84 
  53 	 	 822 	 	 672 	 	 5 	 	 2106 	 	 2537 	 	 71 
  54 	 	 686 	 	 819 	 	 6 	 	 2628 	 	 3044 	 	 77 
  55 	 	 726 	 	 766 	 	 5 	 	 1413 	 	 1737 	 	 51 
  56 	 	 271 	 	 818 	 	 94 	 	 2894 	 	 3253 	 	 87 
  57 	 	 843 	 	 679 	 	 5 	 	 1261 	 	 1589 	 	 77 
  58 	 	 608 	 	 745 	 	 6 	 	 1494 	 	 1933 	 	 95 
  59 	 	 859 	 	 975 	 	 92 	 	 158 	 	 654 	 	 53 
  60 	 	 902 	 	 222 	 	 8 	 	 1006 	 	 1340 	 	 61 
  61 	 	 41 	 	 414 	 	 6 	 	 1638 	 	 2091 	 	 61 
  62 	 	 650 	 	 985 	 	 3 	 	 2890 	 	 3197 	 	 94 
  63 	 	 837 	 	 823 	 	 8 	 	 1320 	 	 1672 	 	 94 
  64 	 	 764 	 	 721 	 	 6 	 	 3471 	 	 3699 	 	 53 
  65 	 	 774 	 	 673 	 	 8 	 	 1125 	 	 1567 	 	 90 
  66 	 	 990 	 	 994 	 	 3 	 	 1925 	 	 2256 	 	 100 
  67 	 	 796 	 	 867 	 	 5 	 	 1572 	 	 2010 	 	 52 
  68 	 	 759 	 	 840 	 	 63 	 	 3372 	 	 3626 	 	 53 
  69 	 	 332 	 	 933 	 	 90 	 	 2467 	 	 2958 	 	 62 
  70 	 	 486 	 	 952 	 	 4 	 	 3330 	 	 3699 	 	 60 
  71 	 	 248 	 	 814 	 	 9 	 	 2506 	 	 2941 	 	 57 
  72 	 	 199 	 	 922 	 	 4 	 	 835 	 	 1054 	 	 70 
  73 	 	 293 	 	 845 	 	 5 	 	 1220 	 	 1489 	 	 51 
  74 	 	 819 	 	 38 	 	 2 	 	 2319 	 	 2548 	 	 85 
  75 	 	 930 	 	 872 	 	 50 	 	 470 	 	 862 	 	 77 
  76 	 	 386 	 	 1000 	 	 2 	 	 2976 	 	 3388 	 	 63 
  77 	 	 767 	 	 745 	 	 4 	 	 797 	 	 1030 	 	 58 
  78 	 	 361 	 	 935 	 	 5 	 	 407 	 	 690 	 	 86 
  79 	 	 240 	 	 899 	 	 1 	 	 2795 	 	 3272 	 	 51 
  80 	 	 340 	 	 852 	 	 7 	 	 2132 	 	 2395 	 	 95 
  81 	 	 868 	 	 106 	 	 60 	 	 2377 	 	 2873 	 	 87 
  82 	 	 216 	 	 833 	 	 10 	 	 216 	 	 481 	 	 79 
  83 	 	 15 	 	 329 	 	 8 	 	 363 	 	 565 	 	 86 
  84 	 	 488 	 	 820 	 	 82 	 	 197 	 	 601 	 	 84 
  85 	 	 107 	 	 242 	 	 4 	 	 2721 	 	 2948 	 	 74 
  86 	 	 436 	 	 852 	 	 10 	 	 2015 	 	 2492 	 	 90 
  87 	 	 763 	 	 763 	 	 4 	 	 2302 	 	 2695 	 	 59 
  88 	 	 888 	 	 17 	 	 9 	 	 893 	 	 1310 	 	 79 
  89 	 	 496 	 	 896 	 	 9 	 	 2399 	 	 2678 	 	 65 
  90 	 	 276 	 	 913 	 	 2 	 	 1517 	 	 1876 	 	 73 
  91 	 	 420 	 	 884 	 	 6 	 	 2812 	 	 3284 	 	 89 
  92 	 	 373 	 	 803 	 	 8 	 	 3255 	 	 3676 	 	 63 
  93 	 	 190 	 	 859 	 	 9 	 	 760 	 	 1042 	 	 66 
  94 	 	 872 	 	 977 	 	 95 	 	 3370 	 	 3636 	 	 82 
  95 	 	 845 	 	 87 	 	 2 	 	 2752 	 	 3152 	 	 81 
  96 	 	 224 	 	 611 	 	 8 	 	 1385 	 	 1766 	 	 61 
  97 	 	 268 	 	 906 	 	 9 	 	 1560 	 	 2002 	 	 77 
  98 	 	 678 	 	 742 	 	 9 	 	 2255 	 	 2607 	 	 86 
  99 	 	 319 	 	 892 	 	 1 	 	 2171 	 	 2379 	 	 81 
  100 	 	 914 	 	 803 	 	 94 	 	 272 	 	 676 	 	 67 
 